1 2
1 3
1 4
1 5
1 6
1 9
1 12
2 3
2 4
2 5
2 7
2 8
2 9
2 10
2 11
2 12
3 4
3 6
3 9
3 10
3 12
4 5
4 6
4 8
4 10
4 12
5 6
5 7
5 8
5 10
5 11
5 13
6 9
6 10
6 13
7 9
7 10
7 13
8 12
8 13
9 10
9 13
10 12
11 13
12 13
